results_rootrelaxation/bin018_070_008.srr.sol
solution status: optimal solution found
objective value:                    0.753273255453152
_var2945_                          0.0746092352185214 	(obj:0)
_var2996_                           0.014195001143523 	(obj:0)
_var3013_                         0.00537776689609554 	(obj:0)
_var3018_                           0.013524575615482 	(obj:0)
_var3032_                           0.140592881358022 	(obj:0)
_var3063_                          0.0476649607682071 	(obj:0)
_var3085_                           0.182159327197948 	(obj:0)
_var3094_                          0.0374059723660437 	(obj:1)
_var3123_                          0.0788925039933015 	(obj:0)
_var3150_                           0.159427398404793 	(obj:0)
_var3192_                         0.00258176315724205 	(obj:0)
_var3193_                          0.0107185711593709 	(obj:0)
_var3199_                           0.203183771659186 	(obj:0)
_var3212_                           0.217025082701645 	(obj:0)
_var3217_                          0.0422549376932682 	(obj:0)
_var3219_                            0.12898138917681 	(obj:0)
_var3235_                           0.127998201903779 	(obj:0)
_var3250_                         0.00407737292536076 	(obj:0)
_var3267_                          0.0551035911381899 	(obj:0)
_var3276_                           0.268890857490489 	(obj:0)
_var3289_                           0.331772325703659 	(obj:0)
_var3290_                          0.0112419431664714 	(obj:0)
_var3293_                          0.0383397279446075 	(obj:0)
_var3294_                           0.050224127943764 	(obj:0)
_var3306_                            0.15575476062395 	(obj:0)
_var3326_                          0.0639842172673155 	(obj:0)
_var3327_                           0.212198943022417 	(obj:0)
_var3332_                           0.165439508204655 	(obj:1)
_var3336_                          0.0993558764948008 	(obj:0)
_var3341_                         0.00727306142377615 	(obj:0)
_var3344_                          0.0474003618681544 	(obj:0)
_var3345_                         0.000209847360653048 	(obj:0)
_var3353_                           0.024066385575266 	(obj:0)
_var3363_                          0.0608511924264739 	(obj:0)
_var3364_                           0.238002541073563 	(obj:0)
_var3376_                            0.21153670362038 	(obj:0)
_var3380_                          0.0436234044180173 	(obj:0)
_var3383_                           0.303103507375928 	(obj:1)
_var3385_                          0.0618271065539369 	(obj:0)
_var3386_                          0.0480276880112859 	(obj:0)
_var3392_                           0.641509251083007 	(obj:0)
_var3396_                         0.00217726108992006 	(obj:0)
_var3420_                           0.066169034037838 	(obj:0)
_var3424_                           0.446172363267065 	(obj:0)
_var3427_                         0.00775746292326612 	(obj:0)
_var3430_                           0.321655538837335 	(obj:0)
_var3432_                          0.0660432189660209 	(obj:0)
_var3437_                          0.0428688704246922 	(obj:0)
_var3438_                           0.194767727508934 	(obj:0)
_var3440_                          0.0107372889638572 	(obj:0)
_var3448_                           0.115906738963765 	(obj:0)
_var3451_                           0.132161105065341 	(obj:1)
_var3458_                          0.0505723634698978 	(obj:0)
_var3462_                           0.220236572128683 	(obj:0)
_var3465_                          0.0320258798142922 	(obj:0)
_var3468_                           0.191333404341913 	(obj:0)
_var3477_                           0.233985455555307 	(obj:0)
_var3478_                            0.17924231944175 	(obj:0)
_var3488_                           0.114468886862432 	(obj:0)
_var3490_                           0.246597051297838 	(obj:0)
_var3491_                           0.466622985308836 	(obj:0)
_var3500_                           0.264936901784204 	(obj:0)
_var3502_                          0.0479104314205052 	(obj:1)
_var3503_                          0.0313968982545755 	(obj:0)
_var3505_                          0.0337632338419405 	(obj:0)
_var3507_                           0.128571567264543 	(obj:0)
_var3512_                           0.122598738362901 	(obj:0)
_var3514_                           0.226146429256067 	(obj:0)
_var3515_                          0.0685753531659034 	(obj:0)
_var3519_                           0.055393340204935 	(obj:0)
_var3520_                          0.0862631429020373 	(obj:0)
_var3522_                           0.185206212390988 	(obj:0)
_var3524_                           0.231418527477519 	(obj:0)
_var3526_                           0.343827874858245 	(obj:0)
_var3527_                          0.0776938141109108 	(obj:0)
_var3528_                          0.0101538091896384 	(obj:0)
_var3530_                           0.176802080191032 	(obj:0)
_var3535_                           0.235876636554676 	(obj:0)
_var3536_                          0.0330810185870148 	(obj:1)
_var3540_                           0.102486816147433 	(obj:0)
_var3546_                           0.363864521097294 	(obj:0)
_var3547_                           0.342501773040989 	(obj:0)
_var3550_                           0.154585713044902 	(obj:0)
_var3552_                           0.220236572128683 	(obj:0)
_var3554_                           0.122976860070708 	(obj:0)
_var3555_                           0.182905165706325 	(obj:0)
_var3557_                          0.0535412354506386 	(obj:0)
_var3558_                            0.16185650054479 	(obj:0)
_var3567_                           0.234161237262181 	(obj:0)
_var3569_                          0.0341717124336641 	(obj:1)
_var3573_                           0.022581278493105 	(obj:0)
_var3579_                            0.19647535737198 	(obj:0)
_var3581_                           0.291855465545586 	(obj:0)
_var3583_                           0.106281534080105 	(obj:0)
_var3584_                           0.112173878014175 	(obj:0)
_var3586_                           0.182844143821801 	(obj:0)
_var3592_                           0.183263354765803 	(obj:0)
_var3593_                          0.0797244241644152 	(obj:0)
_var3594_                           0.115000254554409 	(obj:0)
_var3595_                           0.128131176424964 	(obj:0)
_var3597_                          0.0353542898598501 	(obj:0)
_var3600_                          0.0647801236003631 	(obj:0)
_var3601_                          0.0453642290220004 	(obj:0)
_var3602_                            0.19946637793988 	(obj:0)
_var3603_                           0.165666250819801 	(obj:0)
_var3606_                           0.159427398404793 	(obj:0)
_var3609_                          0.0641777389914111 	(obj:0)
_var3610_                          0.0798882984688445 	(obj:0)
_var3613_                          0.0297797495285105 	(obj:0)
_var3619_                          0.0693564175977294 	(obj:0)
_var3622_                           0.175531538293116 	(obj:0)
_var3623_                          0.0384955411888481 	(obj:0)
_var3625_                           0.214687830600821 	(obj:0)
_var3626_                           0.322495990202407 	(obj:0)
_var3627_                           0.286001489529298 	(obj:0)
_var3628_                          0.0504365442699289 	(obj:0)
_var3629_                           0.029864739707785 	(obj:0)
_var3635_                          0.0206201629645318 	(obj:0)
_var3639_                          0.0166302951782669 	(obj:0)
_var3640_                          0.0771159230731261 	(obj:0)
_var3642_                         0.00540601073623671 	(obj:0)
_var3643_                          0.0720133816919025 	(obj:0)
_var3644_                         0.00258747980190172 	(obj:0)
_var3645_                           0.208305664701191 	(obj:0)
_var3646_                          0.0905745668339281 	(obj:0)
_var3647_                          0.0628190410436812 	(obj:0)
_var3648_                           0.196475357371981 	(obj:0)
_var3649_                          0.0466183065739955 	(obj:0)
_var3654_                          0.0158802283084133 	(obj:0)
_var3656_                          0.0800137553976499 	(obj:0)
_var3657_                          0.0272914577181701 	(obj:0)
_var3659_                          0.0845111129696125 	(obj:0)
_var3663_                         0.00239120265053684 	(obj:0)
_var3664_                           0.103211681687308 	(obj:0)
_var3668_                          0.0245488633351426 	(obj:0)
_var3670_                         0.000115573318614995 	(obj:0)
_var3674_                          0.0395491621173736 	(obj:0)
_var3675_                         0.00339095545908732 	(obj:0)
_var3676_                           0.101152795958722 	(obj:0)
_var3677_                          0.0782944091417661 	(obj:0)
_var3678_                          0.0451052757064882 	(obj:0)
_var3679_                          0.0190799996371679 	(obj:0)
_var3682_                         0.00517569976602275 	(obj:0)
_var3683_                          0.0172029334518655 	(obj:0)
