results_rootrelaxation/bin018_070_008.srr.log
SCIP version 8.0.3.5 [precision: 8 byte] [memory: block] [mode: optimized] [LP solver: Soplex 6.0.1.3] [GitHash: 438792519e]
Copyright (c) 2002-2023 Zuse Institute Berlin (ZIB)

External libraries: 
  Readline 8.1         GNU library for command line editing (gnu.org/s/readline)
  Soplex 6.0.1.3       Linear Programming Solver developed at Zuse Institute Berlin (soplex.zib.de) [GitHash: 713be0fe]
  CppAD 20180000.0     Algorithmic Differentiation of C++ algorithms developed by B. Bell (github.com/coin-or/CppAD)
  ZLIB 1.2.11          General purpose compression library by J. Gailly and M. Adler (zlib.net)
  bliss 0.77           Computing Graph Automorphism Groups by T. Junttila and P. Kaski (www.tcs.hut.fi/Software/bliss/)

user parameter file <scip.set> not found - using default parameters

srr/relaxation = TRUE

read problem <instances/bin018_070_008.srr>
============

Original problem: 
original problem has 0 variables (0 bin, 0 int, 0 impl, 0 cont) and 170 constraints

presolving:
presolving (1 rounds: 1 fast, 1 medium, 1 exhaustive):
 0 deleted vars, 0 deleted constraints, 0 added constraints, 0 tightened bounds, 0 added holes, 0 changed sides, 0 changed coefficients
 0 implications, 0 cliques
presolved problem has 0 variables (0 bin, 0 int, 0 impl, 0 cont) and 170 constraints
    170 constraints of type <linear>
Presolving Time: 0.00

 time | node  | left  |LP iter|LP it/n|mem/heur|mdpt |vars |cons |rows |cuts |sepa|confs|strbr|  dualbound   | primalbound  |  gap   | compl. 
  0.0s|     1 |     0 |     1 |     - |   922k |   0 |   1 | 170 | 170 |   0 |  0 |   0 |   0 |      --      |      --      |    Inf | unknown
  0.2s|     1 |     0 |  1430 |     - |  7098k |   0 |1615 | 170 | 170 |   0 |  0 |   0 |   0 |      --      |      --      |    Inf | unknown
r 0.8s|     1 |     0 |  5880 |     - |simplero|   0 |2703 | 170 | 170 |   0 |  0 |   0 |   0 |      --      | 6.366515e+01 |    Inf | unknown
r 0.8s|     1 |     0 |  5950 |     - |simplero|   0 |2720 | 170 | 170 |   0 |  0 |   0 |   0 |      --      | 6.225767e+01 |    Inf | unknown
r 0.8s|     1 |     0 |  6117 |     - |simplero|   0 |2737 | 170 | 170 |   0 |  0 |   0 |   0 |      --      | 5.944898e+01 |    Inf | unknown
r 0.9s|     1 |     0 |  6276 |     - |simplero|   0 |2754 | 170 | 170 |   0 |  0 |   0 |   0 |      --      | 5.584732e+01 |    Inf | unknown
r 0.9s|     1 |     0 |  6458 |     - |simplero|   0 |2771 | 170 | 170 |   0 |  0 |   0 |   0 |      --      | 5.346226e+01 |    Inf | unknown
r 0.9s|     1 |     0 |  6613 |     - |simplero|   0 |2788 | 170 | 170 |   0 |  0 |   0 |   0 |      --      | 5.125957e+01 |    Inf | unknown
r 0.9s|     1 |     0 |  6829 |     - |simplero|   0 |2805 | 170 | 170 |   0 |  0 |   0 |   0 |      --      | 4.808845e+01 |    Inf | unknown
r 1.0s|     1 |     0 |  6994 |     - |simplero|   0 |2822 | 170 | 170 |   0 |  0 |   0 |   0 |      --      | 4.594385e+01 |    Inf | unknown
r 1.0s|     1 |     0 |  7112 |     - |simplero|   0 |2839 | 170 | 170 |   0 |  0 |   0 |   0 |      --      | 4.362030e+01 |    Inf | unknown
r 1.0s|     1 |     0 |  7198 |     - |simplero|   0 |2839 | 170 | 170 |   0 |  0 |   0 |   0 |      --      | 4.280062e+01 |    Inf | unknown
r 1.0s|     1 |     0 |  7221 |     - |simplero|   0 |2839 | 170 | 170 |   0 |  0 |   0 |   0 |      --      | 4.277007e+01 |    Inf | unknown
r 1.0s|     1 |     0 |  7227 |     - |simplero|   0 |2839 | 170 | 170 |   0 |  0 |   0 |   0 |      --      | 4.276696e+01 |    Inf | unknown
r 1.0s|     1 |     0 |  7372 |     - |simplero|   0 |2856 | 170 | 170 |   0 |  0 |   0 |   0 |      --      | 4.052175e+01 |    Inf | unknown
 time | node  | left  |LP iter|LP it/n|mem/heur|mdpt |vars |cons |rows |cuts |sepa|confs|strbr|  dualbound   | primalbound  |  gap   | compl. 
r 1.0s|     1 |     0 |  7422 |     - |simplero|   0 |2856 | 170 | 170 |   0 |  0 |   0 |   0 |      --      | 4.026005e+01 |    Inf | unknown
r 1.0s|     1 |     0 |  7448 |     - |simplero|   0 |2856 | 170 | 170 |   0 |  0 |   0 |   0 |      --      | 4.019043e+01 |    Inf | unknown
r 1.0s|     1 |     0 |  7454 |     - |simplero|   0 |2856 | 170 | 170 |   0 |  0 |   0 |   0 |      --      | 4.018901e+01 |    Inf | unknown
r 1.0s|     1 |     0 |  7556 |     - |simplero|   0 |2873 | 170 | 170 |   0 |  0 |   0 |   0 |      --      | 3.835906e+01 |    Inf | unknown
r 1.1s|     1 |     0 |  7670 |     - |simplero|   0 |2873 | 170 | 170 |   0 |  0 |   0 |   0 |      --      | 3.704888e+01 |    Inf | unknown
r 1.1s|     1 |     0 |  7696 |     - |simplero|   0 |2873 | 170 | 170 |   0 |  0 |   0 |   0 |      --      | 3.697959e+01 |    Inf | unknown
r 1.1s|     1 |     0 |  7703 |     - |simplero|   0 |2873 | 170 | 170 |   0 |  0 |   0 |   0 |      --      | 3.697868e+01 |    Inf | unknown
r 1.1s|     1 |     0 |  7706 |     - |simplero|   0 |2873 | 170 | 170 |   0 |  0 |   0 |   0 |      --      | 3.697812e+01 |    Inf | unknown
r 1.1s|     1 |     0 |  7811 |     - |simplero|   0 |2890 | 170 | 170 |   0 |  0 |   0 |   0 |      --      | 3.491009e+01 |    Inf | unknown
r 1.1s|     1 |     0 |  7875 |     - |simplero|   0 |2890 | 170 | 170 |   0 |  0 |   0 |   0 |      --      | 3.452042e+01 |    Inf | unknown
r 1.1s|     1 |     0 |  7910 |     - |simplero|   0 |2890 | 170 | 170 |   0 |  0 |   0 |   0 |      --      | 3.441667e+01 |    Inf | unknown
r 1.1s|     1 |     0 |  7920 |     - |simplero|   0 |2890 | 170 | 170 |   0 |  0 |   0 |   0 |      --      | 3.440469e+01 |    Inf | unknown
r 1.1s|     1 |     0 |  7922 |     - |simplero|   0 |2890 | 170 | 170 |   0 |  0 |   0 |   0 |      --      | 3.440455e+01 |    Inf | unknown
r 1.1s|     1 |     0 |  8019 |     - |simplero|   0 |2907 | 170 | 170 |   0 |  0 |   0 |   0 |      --      | 3.331214e+01 |    Inf | unknown
r 1.1s|     1 |     0 |  8108 |     - |simplero|   0 |2907 | 170 | 170 |   0 |  0 |   0 |   0 |      --      | 3.299878e+01 |    Inf | unknown
 time | node  | left  |LP iter|LP it/n|mem/heur|mdpt |vars |cons |rows |cuts |sepa|confs|strbr|  dualbound   | primalbound  |  gap   | compl. 
r 1.1s|     1 |     0 |  8144 |     - |simplero|   0 |2907 | 170 | 170 |   0 |  0 |   0 |   0 |      --      | 3.293868e+01 |    Inf | unknown
r 1.2s|     1 |     0 |  8157 |     - |simplero|   0 |2907 | 170 | 170 |   0 |  0 |   0 |   0 |      --      | 3.292109e+01 |    Inf | unknown
r 1.2s|     1 |     0 |  8314 |     - |simplero|   0 |2924 | 170 | 170 |   0 |  0 |   0 |   0 |      --      | 3.086591e+01 |    Inf | unknown
r 1.2s|     1 |     0 |  8407 |     - |simplero|   0 |2924 | 170 | 170 |   0 |  0 |   0 |   0 |      --      | 3.056067e+01 |    Inf | unknown
r 1.2s|     1 |     0 |  8421 |     - |simplero|   0 |2924 | 170 | 170 |   0 |  0 |   0 |   0 |      --      | 3.052864e+01 |    Inf | unknown
r 1.2s|     1 |     0 |  8545 |     - |simplero|   0 |2941 | 170 | 170 |   0 |  0 |   0 |   0 |      --      | 2.914512e+01 |    Inf | unknown
r 1.2s|     1 |     0 |  8624 |     - |simplero|   0 |2941 | 170 | 170 |   0 |  0 |   0 |   0 |      --      | 2.874578e+01 |    Inf | unknown
  1.2s|     1 |     0 |  8627 |     - |    14M |   0 |2941 | 170 | 170 |   0 |  0 |   0 |   0 |      --      | 2.874578e+01 |    Inf | unknown
r 1.2s|     1 |     0 |  8627 |     - |simplero|   0 |2941 | 170 | 170 |   0 |  0 |   0 |   0 |      --      | 2.874530e+01 |    Inf | unknown
r 1.2s|     1 |     0 |  8769 |     - |simplero|   0 |2958 | 170 | 170 |   0 |  0 |   0 |   0 |      --      | 2.693454e+01 |    Inf | unknown
r 1.2s|     1 |     0 |  8795 |     - |simplero|   0 |2958 | 170 | 170 |   0 |  0 |   0 |   0 |      --      | 2.684826e+01 |    Inf | unknown
r 1.2s|     1 |     0 |  8807 |     - |simplero|   0 |2958 | 170 | 170 |   0 |  0 |   0 |   0 |      --      | 2.684129e+01 |    Inf | unknown
r 1.3s|     1 |     0 |  8955 |     - |simplero|   0 |2975 | 170 | 170 |   0 |  0 |   0 |   0 |      --      | 2.520191e+01 |    Inf | unknown
r 1.3s|     1 |     0 |  9001 |     - |simplero|   0 |2975 | 170 | 170 |   0 |  0 |   0 |   0 |      --      | 2.502834e+01 |    Inf | unknown
r 1.3s|     1 |     0 |  9010 |     - |simplero|   0 |2975 | 170 | 170 |   0 |  0 |   0 |   0 |      --      | 2.502624e+01 |    Inf | unknown
 time | node  | left  |LP iter|LP it/n|mem/heur|mdpt |vars |cons |rows |cuts |sepa|confs|strbr|  dualbound   | primalbound  |  gap   | compl. 
r 1.3s|     1 |     0 |  9141 |     - |simplero|   0 |2992 | 170 | 170 |   0 |  0 |   0 |   0 |      --      | 2.352207e+01 |    Inf | unknown
r 1.3s|     1 |     0 |  9188 |     - |simplero|   0 |2992 | 170 | 170 |   0 |  0 |   0 |   0 |      --      | 2.334946e+01 |    Inf | unknown
r 1.3s|     1 |     0 |  9201 |     - |simplero|   0 |2992 | 170 | 170 |   0 |  0 |   0 |   0 |      --      | 2.333856e+01 |    Inf | unknown
r 1.3s|     1 |     0 |  9204 |     - |simplero|   0 |2992 | 170 | 170 |   0 |  0 |   0 |   0 |      --      | 2.333769e+01 |    Inf | unknown
r 1.3s|     1 |     0 |  9356 |     - |simplero|   0 |3009 | 170 | 170 |   0 |  0 |   0 |   0 |      --      | 2.219434e+01 |    Inf | unknown
r 1.3s|     1 |     0 |  9402 |     - |simplero|   0 |3009 | 170 | 170 |   0 |  0 |   0 |   0 |      --      | 2.200388e+01 |    Inf | unknown
r 1.3s|     1 |     0 |  9414 |     - |simplero|   0 |3009 | 170 | 170 |   0 |  0 |   0 |   0 |      --      | 2.198755e+01 |    Inf | unknown
r 1.3s|     1 |     0 |  9421 |     - |simplero|   0 |3009 | 170 | 170 |   0 |  0 |   0 |   0 |      --      | 2.198562e+01 |    Inf | unknown
r 1.4s|     1 |     0 |  9508 |     - |simplero|   0 |3026 | 170 | 170 |   0 |  0 |   0 |   0 |      --      | 2.111319e+01 |    Inf | unknown
r 1.4s|     1 |     0 |  9570 |     - |simplero|   0 |3026 | 170 | 170 |   0 |  0 |   0 |   0 |      --      | 2.086755e+01 |    Inf | unknown
r 1.4s|     1 |     0 |  9592 |     - |simplero|   0 |3026 | 170 | 170 |   0 |  0 |   0 |   0 |      --      | 2.079817e+01 |    Inf | unknown
r 1.4s|     1 |     0 |  9598 |     - |simplero|   0 |3026 | 170 | 170 |   0 |  0 |   0 |   0 |      --      | 2.078869e+01 |    Inf | unknown
r 1.4s|     1 |     0 |  9718 |     - |simplero|   0 |3043 | 170 | 170 |   0 |  0 |   0 |   0 |      --      | 1.929596e+01 |    Inf | unknown
r 1.4s|     1 |     0 |  9766 |     - |simplero|   0 |3043 | 170 | 170 |   0 |  0 |   0 |   0 |      --      | 1.918729e+01 |    Inf | unknown
r 1.4s|     1 |     0 |  9783 |     - |simplero|   0 |3043 | 170 | 170 |   0 |  0 |   0 |   0 |      --      | 1.917389e+01 |    Inf | unknown
 time | node  | left  |LP iter|LP it/n|mem/heur|mdpt |vars |cons |rows |cuts |sepa|confs|strbr|  dualbound   | primalbound  |  gap   | compl. 
r 1.4s|     1 |     0 |  9894 |     - |simplero|   0 |3060 | 170 | 170 |   0 |  0 |   0 |   0 |      --      | 1.824209e+01 |    Inf | unknown
r 1.4s|     1 |     0 |  9948 |     - |simplero|   0 |3060 | 170 | 170 |   0 |  0 |   0 |   0 |      --      | 1.798421e+01 |    Inf | unknown
r 1.4s|     1 |     0 |  9968 |     - |simplero|   0 |3060 | 170 | 170 |   0 |  0 |   0 |   0 |      --      | 1.796253e+01 |    Inf | unknown
r 1.4s|     1 |     0 |  9970 |     - |simplero|   0 |3060 | 170 | 170 |   0 |  0 |   0 |   0 |      --      | 1.796240e+01 |    Inf | unknown
r 1.5s|     1 |     0 | 10083 |     - |simplero|   0 |3077 | 170 | 170 |   0 |  0 |   0 |   0 |      --      | 1.704793e+01 |    Inf | unknown
r 1.5s|     1 |     0 | 10087 |     - |simplero|   0 |3077 | 170 | 170 |   0 |  0 |   0 |   0 |      --      | 1.703465e+01 |    Inf | unknown
r 1.5s|     1 |     0 | 10088 |     - |simplero|   0 |3077 | 170 | 170 |   0 |  0 |   0 |   0 |      --      | 1.703446e+01 |    Inf | unknown
r 1.5s|     1 |     0 | 10089 |     - |simplero|   0 |3077 | 170 | 170 |   0 |  0 |   0 |   0 |      --      | 1.703446e+01 |    Inf | unknown
r 1.5s|     1 |     0 | 10185 |     - |simplero|   0 |3094 | 170 | 170 |   0 |  0 |   0 |   0 |      --      | 1.617733e+01 |    Inf | unknown
r 1.5s|     1 |     0 | 10226 |     - |simplero|   0 |3094 | 170 | 170 |   0 |  0 |   0 |   0 |      --      | 1.604239e+01 |    Inf | unknown
r 1.5s|     1 |     0 | 10230 |     - |simplero|   0 |3094 | 170 | 170 |   0 |  0 |   0 |   0 |      --      | 1.603899e+01 |    Inf | unknown
r 1.5s|     1 |     0 | 10236 |     - |simplero|   0 |3094 | 170 | 170 |   0 |  0 |   0 |   0 |      --      | 1.603860e+01 |    Inf | unknown
r 1.5s|     1 |     0 | 10352 |     - |simplero|   0 |3111 | 170 | 170 |   0 |  0 |   0 |   0 |      --      | 1.467845e+01 |    Inf | unknown
r 1.5s|     1 |     0 | 10406 |     - |simplero|   0 |3111 | 170 | 170 |   0 |  0 |   0 |   0 |      --      | 1.439771e+01 |    Inf | unknown
r 1.5s|     1 |     0 | 10423 |     - |simplero|   0 |3111 | 170 | 170 |   0 |  0 |   0 |   0 |      --      | 1.437775e+01 |    Inf | unknown
 time | node  | left  |LP iter|LP it/n|mem/heur|mdpt |vars |cons |rows |cuts |sepa|confs|strbr|  dualbound   | primalbound  |  gap   | compl. 
r 1.5s|     1 |     0 | 10524 |     - |simplero|   0 |3128 | 170 | 170 |   0 |  0 |   0 |   0 |      --      | 1.354284e+01 |    Inf | unknown
r 1.6s|     1 |     0 | 10527 |     - |simplero|   0 |3128 | 170 | 170 |   0 |  0 |   0 |   0 |      --      | 1.353897e+01 |    Inf | unknown
r 1.6s|     1 |     0 | 10626 |     - |simplero|   0 |3145 | 170 | 170 |   0 |  0 |   0 |   0 |      --      | 1.250072e+01 |    Inf | unknown
r 1.6s|     1 |     0 | 10652 |     - |simplero|   0 |3145 | 170 | 170 |   0 |  0 |   0 |   0 |      --      | 1.238201e+01 |    Inf | unknown
r 1.6s|     1 |     0 | 10671 |     - |simplero|   0 |3145 | 170 | 170 |   0 |  0 |   0 |   0 |      --      | 1.236871e+01 |    Inf | unknown
r 1.6s|     1 |     0 | 10785 |     - |simplero|   0 |3162 | 170 | 170 |   0 |  0 |   0 |   0 |      --      | 1.124627e+01 |    Inf | unknown
r 1.6s|     1 |     0 | 10802 |     - |simplero|   0 |3162 | 170 | 170 |   0 |  0 |   0 |   0 |      --      | 1.120824e+01 |    Inf | unknown
r 1.6s|     1 |     0 | 10805 |     - |simplero|   0 |3162 | 170 | 170 |   0 |  0 |   0 |   0 |      --      | 1.120647e+01 |    Inf | unknown
r 1.6s|     1 |     0 | 10861 |     - |simplero|   0 |3179 | 170 | 170 |   0 |  0 |   0 |   0 |      --      | 1.073305e+01 |    Inf | unknown
r 1.6s|     1 |     0 | 10893 |     - |simplero|   0 |3179 | 170 | 170 |   0 |  0 |   0 |   0 |      --      | 1.057641e+01 |    Inf | unknown
r 1.6s|     1 |     0 | 10920 |     - |simplero|   0 |3179 | 170 | 170 |   0 |  0 |   0 |   0 |      --      | 1.052548e+01 |    Inf | unknown
r 1.6s|     1 |     0 | 11066 |     - |simplero|   0 |3196 | 170 | 170 |   0 |  0 |   0 |   0 |      --      | 9.532675e+00 |    Inf | unknown
r 1.7s|     1 |     0 | 11092 |     - |simplero|   0 |3196 | 170 | 170 |   0 |  0 |   0 |   0 |      --      | 9.478539e+00 |    Inf | unknown
r 1.7s|     1 |     0 | 11240 |     - |simplero|   0 |3213 | 170 | 170 |   0 |  0 |   0 |   0 |      --      | 8.455582e+00 |    Inf | unknown
r 1.7s|     1 |     0 | 11286 |     - |simplero|   0 |3213 | 170 | 170 |   0 |  0 |   0 |   0 |      --      | 8.365141e+00 |    Inf | unknown
 time | node  | left  |LP iter|LP it/n|mem/heur|mdpt |vars |cons |rows |cuts |sepa|confs|strbr|  dualbound   | primalbound  |  gap   | compl. 
r 1.7s|     1 |     0 | 11303 |     - |simplero|   0 |3213 | 170 | 170 |   0 |  0 |   0 |   0 |      --      | 8.350525e+00 |    Inf | unknown
r 1.7s|     1 |     0 | 11416 |     - |simplero|   0 |3230 | 170 | 170 |   0 |  0 |   0 |   0 |      --      | 7.582669e+00 |    Inf | unknown
r 1.7s|     1 |     0 | 11469 |     - |simplero|   0 |3230 | 170 | 170 |   0 |  0 |   0 |   0 |      --      | 7.511324e+00 |    Inf | unknown
r 1.7s|     1 |     0 | 11484 |     - |simplero|   0 |3230 | 170 | 170 |   0 |  0 |   0 |   0 |      --      | 7.505497e+00 |    Inf | unknown
r 1.7s|     1 |     0 | 11592 |     - |simplero|   0 |3247 | 170 | 170 |   0 |  0 |   0 |   0 |      --      | 6.808278e+00 |    Inf | unknown
r 1.7s|     1 |     0 | 11601 |     - |simplero|   0 |3247 | 170 | 170 |   0 |  0 |   0 |   0 |      --      | 6.803470e+00 |    Inf | unknown
r 1.7s|     1 |     0 | 11603 |     - |simplero|   0 |3247 | 170 | 170 |   0 |  0 |   0 |   0 |      --      | 6.803135e+00 |    Inf | unknown
r 1.7s|     1 |     0 | 11704 |     - |simplero|   0 |3264 | 170 | 170 |   0 |  0 |   0 |   0 |      --      | 6.531605e+00 |    Inf | unknown
r 1.8s|     1 |     0 | 11757 |     - |simplero|   0 |3264 | 170 | 170 |   0 |  0 |   0 |   0 |      --      | 6.397584e+00 |    Inf | unknown
r 1.8s|     1 |     0 | 11763 |     - |simplero|   0 |3264 | 170 | 170 |   0 |  0 |   0 |   0 |      --      | 6.395213e+00 |    Inf | unknown
r 1.8s|     1 |     0 | 11856 |     - |simplero|   0 |3281 | 170 | 170 |   0 |  0 |   0 |   0 |      --      | 5.907348e+00 |    Inf | unknown
r 1.8s|     1 |     0 | 11888 |     - |simplero|   0 |3281 | 170 | 170 |   0 |  0 |   0 |   0 |      --      | 5.841082e+00 |    Inf | unknown
r 1.8s|     1 |     0 | 11899 |     - |simplero|   0 |3281 | 170 | 170 |   0 |  0 |   0 |   0 |      --      | 5.831313e+00 |    Inf | unknown
r 1.8s|     1 |     0 | 11904 |     - |simplero|   0 |3281 | 170 | 170 |   0 |  0 |   0 |   0 |      --      | 5.830767e+00 |    Inf | unknown
r 1.8s|     1 |     0 | 12007 |     - |simplero|   0 |3298 | 170 | 170 |   0 |  0 |   0 |   0 |      --      | 5.290726e+00 |    Inf | unknown
 time | node  | left  |LP iter|LP it/n|mem/heur|mdpt |vars |cons |rows |cuts |sepa|confs|strbr|  dualbound   | primalbound  |  gap   | compl. 
r 1.8s|     1 |     0 | 12042 |     - |simplero|   0 |3298 | 170 | 170 |   0 |  0 |   0 |   0 |      --      | 5.262046e+00 |    Inf | unknown
r 1.8s|     1 |     0 | 12058 |     - |simplero|   0 |3298 | 170 | 170 |   0 |  0 |   0 |   0 |      --      | 5.247503e+00 |    Inf | unknown
r 1.8s|     1 |     0 | 12161 |     - |simplero|   0 |3315 | 170 | 170 |   0 |  0 |   0 |   0 |      --      | 4.647213e+00 |    Inf | unknown
r 1.8s|     1 |     0 | 12215 |     - |simplero|   0 |3315 | 170 | 170 |   0 |  0 |   0 |   0 |      --      | 4.534508e+00 |    Inf | unknown
r 1.8s|     1 |     0 | 12224 |     - |simplero|   0 |3315 | 170 | 170 |   0 |  0 |   0 |   0 |      --      | 4.531609e+00 |    Inf | unknown
r 1.8s|     1 |     0 | 12233 |     - |simplero|   0 |3315 | 170 | 170 |   0 |  0 |   0 |   0 |      --      | 4.530688e+00 |    Inf | unknown
r 1.9s|     1 |     0 | 12335 |     - |simplero|   0 |3332 | 170 | 170 |   0 |  0 |   0 |   0 |      --      | 4.251110e+00 |    Inf | unknown
r 1.9s|     1 |     0 | 12369 |     - |simplero|   0 |3332 | 170 | 170 |   0 |  0 |   0 |   0 |      --      | 4.214022e+00 |    Inf | unknown
r 1.9s|     1 |     0 | 12380 |     - |simplero|   0 |3332 | 170 | 170 |   0 |  0 |   0 |   0 |      --      | 4.208110e+00 |    Inf | unknown
r 1.9s|     1 |     0 | 12500 |     - |simplero|   0 |3349 | 170 | 170 |   0 |  0 |   0 |   0 |      --      | 3.878247e+00 |    Inf | unknown
r 1.9s|     1 |     0 | 12537 |     - |simplero|   0 |3349 | 170 | 170 |   0 |  0 |   0 |   0 |      --      | 3.846105e+00 |    Inf | unknown
r 1.9s|     1 |     0 | 12547 |     - |simplero|   0 |3349 | 170 | 170 |   0 |  0 |   0 |   0 |      --      | 3.844675e+00 |    Inf | unknown
r 1.9s|     1 |     0 | 12548 |     - |simplero|   0 |3349 | 170 | 170 |   0 |  0 |   0 |   0 |      --      | 3.844657e+00 |    Inf | unknown
r 1.9s|     1 |     0 | 12623 |     - |simplero|   0 |3366 | 170 | 170 |   0 |  0 |   0 |   0 |      --      | 3.527392e+00 |    Inf | unknown
r 1.9s|     1 |     0 | 12653 |     - |simplero|   0 |3366 | 170 | 170 |   0 |  0 |   0 |   0 |      --      | 3.502769e+00 |    Inf | unknown
 time | node  | left  |LP iter|LP it/n|mem/heur|mdpt |vars |cons |rows |cuts |sepa|confs|strbr|  dualbound   | primalbound  |  gap   | compl. 
r 1.9s|     1 |     0 | 12660 |     - |simplero|   0 |3366 | 170 | 170 |   0 |  0 |   0 |   0 |      --      | 3.501404e+00 |    Inf | unknown
r 1.9s|     1 |     0 | 12665 |     - |simplero|   0 |3366 | 170 | 170 |   0 |  0 |   0 |   0 |      --      | 3.500703e+00 |    Inf | unknown
r 1.9s|     1 |     0 | 12755 |     - |simplero|   0 |3383 | 170 | 170 |   0 |  0 |   0 |   0 |      --      | 3.259369e+00 |    Inf | unknown
r 1.9s|     1 |     0 | 12789 |     - |simplero|   0 |3383 | 170 | 170 |   0 |  0 |   0 |   0 |      --      | 3.223329e+00 |    Inf | unknown
r 2.0s|     1 |     0 | 12812 |     - |simplero|   0 |3383 | 170 | 170 |   0 |  0 |   0 |   0 |      --      | 3.211664e+00 |    Inf | unknown
r 2.0s|     1 |     0 | 12925 |     - |simplero|   0 |3400 | 170 | 170 |   0 |  0 |   0 |   0 |      --      | 2.957456e+00 |    Inf | unknown
r 2.0s|     1 |     0 | 12981 |     - |simplero|   0 |3400 | 170 | 170 |   0 |  0 |   0 |   0 |      --      | 2.911844e+00 |    Inf | unknown
r 2.0s|     1 |     0 | 12987 |     - |simplero|   0 |3400 | 170 | 170 |   0 |  0 |   0 |   0 |      --      | 2.910318e+00 |    Inf | unknown
r 2.0s|     1 |     0 | 12988 |     - |simplero|   0 |3400 | 170 | 170 |   0 |  0 |   0 |   0 |      --      | 2.910250e+00 |    Inf | unknown
r 2.0s|     1 |     0 | 13094 |     - |simplero|   0 |3417 | 170 | 170 |   0 |  0 |   0 |   0 |      --      | 2.664504e+00 |    Inf | unknown
r 2.0s|     1 |     0 | 13146 |     - |simplero|   0 |3417 | 170 | 170 |   0 |  0 |   0 |   0 |      --      | 2.592628e+00 |    Inf | unknown
r 2.0s|     1 |     0 | 13148 |     - |simplero|   0 |3417 | 170 | 170 |   0 |  0 |   0 |   0 |      --      | 2.592177e+00 |    Inf | unknown
r 2.0s|     1 |     0 | 13240 |     - |simplero|   0 |3434 | 170 | 170 |   0 |  0 |   0 |   0 |      --      | 2.393811e+00 |    Inf | unknown
r 2.0s|     1 |     0 | 13302 |     - |simplero|   0 |3434 | 170 | 170 |   0 |  0 |   0 |   0 |      --      | 2.307283e+00 |    Inf | unknown
r 2.0s|     1 |     0 | 13308 |     - |simplero|   0 |3434 | 170 | 170 |   0 |  0 |   0 |   0 |      --      | 2.306714e+00 |    Inf | unknown
 time | node  | left  |LP iter|LP it/n|mem/heur|mdpt |vars |cons |rows |cuts |sepa|confs|strbr|  dualbound   | primalbound  |  gap   | compl. 
r 2.0s|     1 |     0 | 13431 |     - |simplero|   0 |3451 | 170 | 170 |   0 |  0 |   0 |   0 |      --      | 1.997761e+00 |    Inf | unknown
r 2.0s|     1 |     0 | 13446 |     - |simplero|   0 |3451 | 170 | 170 |   0 |  0 |   0 |   0 |      --      | 1.996493e+00 |    Inf | unknown
r 2.0s|     1 |     0 | 13447 |     - |simplero|   0 |3451 | 170 | 170 |   0 |  0 |   0 |   0 |      --      | 1.996492e+00 |    Inf | unknown
  2.1s|     1 |     0 | 13539 |     - |    21M |   0 |3468 | 170 | 170 |   0 |  0 |   0 |   0 |      --      | 1.996492e+00 |    Inf | unknown
r 2.1s|     1 |     0 | 13539 |     - |simplero|   0 |3468 | 170 | 170 |   0 |  0 |   0 |   0 |      --      | 1.832160e+00 |    Inf | unknown
r 2.1s|     1 |     0 | 13585 |     - |simplero|   0 |3468 | 170 | 170 |   0 |  0 |   0 |   0 |      --      | 1.801827e+00 |    Inf | unknown
r 2.1s|     1 |     0 | 13681 |     - |simplero|   0 |3485 | 170 | 170 |   0 |  0 |   0 |   0 |      --      | 1.680953e+00 |    Inf | unknown
r 2.1s|     1 |     0 | 13700 |     - |simplero|   0 |3485 | 170 | 170 |   0 |  0 |   0 |   0 |      --      | 1.673810e+00 |    Inf | unknown
r 2.1s|     1 |     0 | 13765 |     - |simplero|   0 |3502 | 170 | 170 |   0 |  0 |   0 |   0 |      --      | 1.557099e+00 |    Inf | unknown
r 2.1s|     1 |     0 | 13785 |     - |simplero|   0 |3502 | 170 | 170 |   0 |  0 |   0 |   0 |      --      | 1.540921e+00 |    Inf | unknown
r 2.1s|     1 |     0 | 13791 |     - |simplero|   0 |3502 | 170 | 170 |   0 |  0 |   0 |   0 |      --      | 1.540246e+00 |    Inf | unknown
r 2.1s|     1 |     0 | 13792 |     - |simplero|   0 |3502 | 170 | 170 |   0 |  0 |   0 |   0 |      --      | 1.540236e+00 |    Inf | unknown
r 2.1s|     1 |     0 | 13876 |     - |simplero|   0 |3519 | 170 | 170 |   0 |  0 |   0 |   0 |      --      | 1.425261e+00 |    Inf | unknown
r 2.1s|     1 |     0 | 13922 |     - |simplero|   0 |3519 | 170 | 170 |   0 |  0 |   0 |   0 |      --      | 1.410363e+00 |    Inf | unknown
r 2.1s|     1 |     0 | 14026 |     - |simplero|   0 |3536 | 170 | 170 |   0 |  0 |   0 |   0 |      --      | 1.249717e+00 |    Inf | unknown
 time | node  | left  |LP iter|LP it/n|mem/heur|mdpt |vars |cons |rows |cuts |sepa|confs|strbr|  dualbound   | primalbound  |  gap   | compl. 
r 2.1s|     1 |     0 | 14049 |     - |simplero|   0 |3536 | 170 | 170 |   0 |  0 |   0 |   0 |      --      | 1.222684e+00 |    Inf | unknown
r 2.1s|     1 |     0 | 14061 |     - |simplero|   0 |3536 | 170 | 170 |   0 |  0 |   0 |   0 |      --      | 1.219053e+00 |    Inf | unknown
r 2.1s|     1 |     0 | 14065 |     - |simplero|   0 |3536 | 170 | 170 |   0 |  0 |   0 |   0 |      --      | 1.218628e+00 |    Inf | unknown
r 2.2s|     1 |     0 | 14174 |     - |simplero|   0 |3553 | 170 | 170 |   0 |  0 |   0 |   0 |      --      | 1.065144e+00 |    Inf | unknown
r 2.2s|     1 |     0 | 14211 |     - |simplero|   0 |3553 | 170 | 170 |   0 |  0 |   0 |   0 |      --      | 1.050778e+00 |    Inf | unknown
r 2.2s|     1 |     0 | 14225 |     - |simplero|   0 |3553 | 170 | 170 |   0 |  0 |   0 |   0 |      --      | 1.046496e+00 |    Inf | unknown
r 2.2s|     1 |     0 | 14280 |     - |simplero|   0 |3569 | 170 | 170 |   0 |  0 |   0 |   0 |      --      | 9.913226e-01 |    Inf | unknown
r 2.2s|     1 |     0 | 14327 |     - |simplero|   0 |3569 | 170 | 170 |   0 |  0 |   0 |   0 |      --      | 9.704289e-01 |    Inf | unknown
r 2.2s|     1 |     0 | 14342 |     - |simplero|   0 |3569 | 170 | 170 |   0 |  0 |   0 |   0 |      --      | 9.694903e-01 |    Inf | unknown
r 2.2s|     1 |     0 | 14393 |     - |simplero|   0 |3585 | 170 | 170 |   0 |  0 |   0 |   0 |      --      | 9.370386e-01 |    Inf | unknown
r 2.2s|     1 |     0 | 14431 |     - |simplero|   0 |3585 | 170 | 170 |   0 |  0 |   0 |   0 |      --      | 9.267886e-01 |    Inf | unknown
r 2.2s|     1 |     0 | 14442 |     - |simplero|   0 |3585 | 170 | 170 |   0 |  0 |   0 |   0 |      --      | 9.261397e-01 |    Inf | unknown
r 2.2s|     1 |     0 | 14443 |     - |simplero|   0 |3585 | 170 | 170 |   0 |  0 |   0 |   0 |      --      | 9.261393e-01 |    Inf | unknown
r 2.2s|     1 |     0 | 14501 |     - |simplero|   0 |3600 | 170 | 170 |   0 |  0 |   0 |   0 |      --      | 9.046065e-01 |    Inf | unknown
r 2.2s|     1 |     0 | 14545 |     - |simplero|   0 |3600 | 170 | 170 |   0 |  0 |   0 |   0 |      --      | 8.904371e-01 |    Inf | unknown
 time | node  | left  |LP iter|LP it/n|mem/heur|mdpt |vars |cons |rows |cuts |sepa|confs|strbr|  dualbound   | primalbound  |  gap   | compl. 
r 2.2s|     1 |     0 | 14549 |     - |simplero|   0 |3600 | 170 | 170 |   0 |  0 |   0 |   0 |      --      | 8.902304e-01 |    Inf | unknown
r 2.2s|     1 |     0 | 14553 |     - |simplero|   0 |3600 | 170 | 170 |   0 |  0 |   0 |   0 |      --      | 8.900189e-01 |    Inf | unknown
r 2.2s|     1 |     0 | 14634 |     - |simplero|   0 |3613 | 170 | 170 |   0 |  0 |   0 |   0 |      --      | 8.418555e-01 |    Inf | unknown
r 2.2s|     1 |     0 | 14643 |     - |simplero|   0 |3613 | 170 | 170 |   0 |  0 |   0 |   0 |      --      | 8.415591e-01 |    Inf | unknown
r 2.2s|     1 |     0 | 14649 |     - |simplero|   0 |3613 | 170 | 170 |   0 |  0 |   0 |   0 |      --      | 8.414818e-01 |    Inf | unknown
r 2.2s|     1 |     0 | 14697 |     - |simplero|   0 |3626 | 170 | 170 |   0 |  0 |   0 |   0 |      --      | 8.223906e-01 |    Inf | unknown
r 2.2s|     1 |     0 | 14730 |     - |simplero|   0 |3626 | 170 | 170 |   0 |  0 |   0 |   0 |      --      | 8.173163e-01 |    Inf | unknown
r 2.2s|     1 |     0 | 14731 |     - |simplero|   0 |3626 | 170 | 170 |   0 |  0 |   0 |   0 |      --      | 8.172520e-01 |    Inf | unknown
r 2.3s|     1 |     0 | 14783 |     - |simplero|   0 |3639 | 170 | 170 |   0 |  0 |   0 |   0 |      --      | 7.953749e-01 |    Inf | unknown
r 2.3s|     1 |     0 | 14792 |     - |simplero|   0 |3639 | 170 | 170 |   0 |  0 |   0 |   0 |      --      | 7.944549e-01 |    Inf | unknown
r 2.3s|     1 |     0 | 14793 |     - |simplero|   0 |3639 | 170 | 170 |   0 |  0 |   0 |   0 |      --      | 7.944525e-01 |    Inf | unknown
r 2.3s|     1 |     0 | 14837 |     - |simplero|   0 |3647 | 170 | 170 |   0 |  0 |   0 |   0 |      --      | 7.771979e-01 |    Inf | unknown
r 2.3s|     1 |     0 | 14852 |     - |simplero|   0 |3647 | 170 | 170 |   0 |  0 |   0 |   0 |      --      | 7.755654e-01 |    Inf | unknown
r 2.3s|     1 |     0 | 14895 |     - |simplero|   0 |3656 | 170 | 170 |   0 |  0 |   0 |   0 |      --      | 7.624492e-01 |    Inf | unknown
r 2.3s|     1 |     0 | 14933 |     - |simplero|   0 |3666 | 170 | 170 |   0 |  0 |   0 |   0 |      --      | 7.579414e-01 |    Inf | unknown
 time | node  | left  |LP iter|LP it/n|mem/heur|mdpt |vars |cons |rows |cuts |sepa|confs|strbr|  dualbound   | primalbound  |  gap   | compl. 
r 2.3s|     1 |     0 | 14934 |     - |simplero|   0 |3666 | 170 | 170 |   0 |  0 |   0 |   0 |      --      | 7.579400e-01 |    Inf | unknown
r 2.3s|     1 |     0 | 14958 |     - |simplero|   0 |3674 | 170 | 170 |   0 |  0 |   0 |   0 |      --      | 7.562552e-01 |    Inf | unknown
r 2.3s|     1 |     0 | 14980 |     - |simplero|   0 |3677 | 170 | 170 |   0 |  0 |   0 |   0 |      --      | 7.553130e-01 |    Inf | unknown
r 2.3s|     1 |     0 | 15003 |     - |simplero|   0 |3682 | 170 | 170 |   0 |  0 |   0 |   0 |      --      | 7.535143e-01 |    Inf | unknown
r 2.3s|     1 |     0 | 15005 |     - |simplero|   0 |3682 | 170 | 170 |   0 |  0 |   0 |   0 |      --      | 7.535084e-01 |    Inf | unknown
r 2.3s|     1 |     0 | 15013 |     - |simplero|   0 |3685 | 170 | 170 |   0 |  0 |   0 |   0 |      --      | 7.532733e-01 |    Inf | unknown
  2.3s|     1 |     0 | 15013 |     - |    24M |   0 |3685 | 170 | 170 |   0 |  0 |   0 |   0 | 7.532733e-01 | 7.532733e-01 |   0.00%| unknown
  2.3s|     1 |     0 | 15013 |     - |    24M |   0 |3685 | 170 | 170 |   0 |  0 |   0 |   0 | 7.532733e-01 | 7.532733e-01 |   0.00%| unknown

SCIP Status        : problem is solved [optimal solution found]
Solving Time (sec) : 2.32
Solving Nodes      : 1
Primal Bound       : +7.53273255453152e-01 (182 solutions)
Dual Bound         : +7.53273255453152e-01
Gap                : 0.00 %

written transformed problem to file <results_rootrelaxation/bin018_070_008.srr.lp>
written transformed problem to file <results_rootrelaxation/bin018_070_008.srr.cip>

written solution information to file <results_rootrelaxation/bin018_070_008.srr.sol>



